
Gurobi 9.1.2 (win64, Java) logging started Sat Nov  6 21:17:09 2021

Academic license - for non-commercial use only - expires 2022-10-30
Gurobi Optimizer version 9.1.2 build v9.1.2rc0 (win64)
Thread count: 6 physical cores, 12 logical processors, using up to 12 threads
Optimize a model with 60 rows, 800 columns and 1600 nonzeros
Model fingerprint: 0xe55c0bb8
Variable types: 0 continuous, 800 integer (800 binary)
Coefficient statistics:
  Matrix range     [1e+00, 1e+03]
  Objective range  [4e+02, 1e+03]
  Bounds range     [1e+00, 1e+00]
  RHS range        [1e+00, 1e+03]
Found heuristic solution: objective 15488.000000
Presolve removed 2 rows and 395 columns
Presolve time: 0.01s
Presolved: 58 rows, 405 columns, 809 nonzeros
Variable types: 0 continuous, 405 integer (405 binary)
Presolved: 58 rows, 405 columns, 809 nonzeros


Root relaxation: objective 2.090413e+04, 226 iterations, 0.00 seconds

    Nodes    |    Current Node    |     Objective Bounds      |     Work
 Expl Unexpl |  Obj  Depth IntInf | Incumbent    BestBd   Gap | It/Node Time

     0     0 20904.1252    0   25 15488.0000 20904.1252  35.0%     -    0s
H    0     0                    19050.000000 20904.1252  9.73%     -    0s
H    0     0                    19492.000000 20904.1252  7.24%     -    0s
H    0     0                    19721.000000 20904.1252  6.00%     -    0s
     0     0 20764.1523    0   50 19721.0000 20764.1523  5.29%     -    0s
H    0     0                    19723.000000 20764.1523  5.28%     -    0s
H    0     0                    19804.000000 20764.1523  4.85%     -    0s
H    0     0                    19889.000000 20764.1523  4.40%     -    0s
H    0     0                    19979.000000 20764.1523  3.93%     -    0s
H    0     0                    20014.000000 20764.1523  3.75%     -    0s
     0     0 20724.6423    0   51 20014.0000 20724.6423  3.55%     -    0s
H    0     0                    20085.000000 20724.6423  3.18%     -    0s
H    0     0                    20248.000000 20724.6423  2.35%     -    0s
     0     0 20718.8857    0   52 20248.0000 20718.8857  2.33%     -    0s
     0     0 20718.6970    0   53 20248.0000 20718.6970  2.32%     -    0s
     0     0 20693.5965    0   45 20248.0000 20693.5965  2.20%     -    1s
     0     0 20693.5188    0   47 20248.0000 20693.5188  2.20%     -    1s
     0     0 20688.1454    0   31 20248.0000 20688.1454  2.17%     -    1s
     0     0 20685.9799    0   57 20248.0000 20685.9799  2.16%     -    1s
     0     0 20685.7907    0   61 20248.0000 20685.7907  2.16%     -    1s
     0     0 20678.7090    0   68 20248.0000 20678.7090  2.13%     -    1s
H    0     0                    20530.000000 20678.7090  0.72%     -    1s
H    0     0                    20597.000000 20678.7090  0.40%     -    1s
     0     0 20675.9572    0   33 20597.0000 20675.9572  0.38%     -    1s
     0     0 20675.4492    0   35 20597.0000 20675.4492  0.38%     -    1s
     0     0 20675.4471    0   35 20597.0000 20675.4471  0.38%     -    2s
     0     0 20667.4604    0   55 20597.0000 20667.4604  0.34%     -    2s
     0     0 20662.3735    0   42 20597.0000 20662.3735  0.32%     -    2s
     0     0 20660.5393    0   45 20597.0000 20660.5393  0.31%     -    2s
     0     0 20635.6109    0   15 20597.0000 20635.6109  0.19%     -    2s
     0     0 20635.0645    0   11 20597.0000 20635.0645  0.18%     -    2s
     0     0 20633.4968    0   20 20597.0000 20633.4968  0.18%     -    2s
     0     0 20633.4968    0   24 20597.0000 20633.4968  0.18%     -    2s
     0     0 20633.4968    0   14 20597.0000 20633.4968  0.18%     -    2s
     0     0 20633.4968    0    9 20597.0000 20633.4968  0.18%     -    2s
     0     0 20633.4968    0   21 20597.0000 20633.4968  0.18%     -    2s
     0     0 20633.4968    0   28 20597.0000 20633.4968  0.18%     -    2s
     0     0 20633.4968    0   29 20597.0000 20633.4968  0.18%     -    2s
     0     0 20621.5403    0   25 20597.0000 20621.5403  0.12%     -    2s
     0     0 20607.3633    0   20 20597.0000 20607.3633  0.05%     -    2s

Cutting planes:
  Gomory: 4
  Cover: 9
  Clique: 5
  MIR: 3
  StrongCG: 3

Explored 1 nodes (1799 simplex iterations) in 2.84 seconds
Thread count was 12 (of 12 available processors)

Solution count 10: 20597 20597 20530 ... 19723

Optimal solution found (tolerance 1.00e-04)
Best objective 2.059700000000e+04, best bound 2.059700000000e+04, gap 0.0000%
